p wcnf 30 42 13
1 1 0
1 2 0
1 3 0
1 4 0
1 5 0
1 6 0
1 7 0
1 8 0
1 9 0
1 10 0
1 11 0
1 12 0
10 -1 -3 -6 0
10 -7 -9 -12 0
10 -2 -3 -6 0
10 -8 -9 -12 0
10 -1 -3 -5 0
10 -7 -9 -11 0
13 1 2 0
13 3 4 0
13 5 6 0
13 7 8 0
13 9 10 0
13 11 12 0
13 2 -25 0
13 4 -25 0
13 6 -25 0
13 8 -26 0
13 10 -26 0
13 12 -26 0
13 2 -27 0
13 4 -27 0
13 5 -27 0
13 8 -28 0
13 10 -28 0
13 11 -28 0
13 1 -29 0
13 4 -29 0
13 6 -29 0
13 7 -30 0
13 10 -30 0
13 12 -30 0
